p cnf 386 460
-20 -1 7 21 22 0
-20 -1 7 21 -22 0
-20 -1 7 -21 23 0
-20 -1 7 -21 -23 0
-5 13 7 24 25 0
-5 13 7 24 -25 0
-5 13 7 -24 26 0
-5 13 7 -24 -26 0
18 15 -4 27 28 0
18 15 -4 27 -28 0
18 15 -4 -27 29 0
18 15 -4 -27 -29 0
-3 11 19 30 31 0
-3 11 19 30 -31 0
-3 11 19 -30 32 0
-3 11 19 -30 -32 0
-2 -1 -14 33 34 0
-2 -1 -14 33 -34 0
-2 -1 -14 -33 35 0
-2 -1 -14 -33 -35 0
-18 20 16 36 37 0
-18 20 16 36 -37 0
-18 20 16 -36 38 0
-18 20 16 -36 -38 0
8 9 -16 39 40 0
8 9 -16 39 -40 0
8 9 -16 -39 41 0
8 9 -16 -39 -41 0
3 -13 -15 42 43 0
3 -13 -15 42 -43 0
3 -13 -15 -42 44 0
3 -13 -15 -42 -44 0
-12 3 16 45 46 0
-12 3 16 45 -46 0
-12 3 16 -45 47 0
-12 3 16 -45 -47 0
13 8 16 48 49 0
13 8 16 48 -49 0
13 8 16 -48 50 0
13 8 16 -48 -50 0
6 -4 8 51 52 0
6 -4 8 51 -52 0
6 -4 8 -51 53 0
6 -4 8 -51 -53 0
-2 -7 18 54 55 0
-2 -7 18 54 -55 0
-2 -7 18 -54 56 0
-2 -7 18 -54 -56 0
11 17 -20 57 58 0
11 17 -20 57 -58 0
11 17 -20 -57 59 0
11 17 -20 -57 -59 0
-2 18 -14 60 61 0
-2 18 -14 60 -61 0
-2 18 -14 -60 62 0
-2 18 -14 -60 -62 0
1 -8 16 63 64 0
1 -8 16 63 -64 0
1 -8 16 -63 65 0
1 -8 16 -63 -65 0
-15 -17 -11 66 67 0
-15 -17 -11 66 -67 0
-15 -17 -11 -66 68 0
-15 -17 -11 -66 -68 0
-18 2 15 69 70 0
-18 2 15 69 -70 0
-18 2 15 -69 71 0
-18 2 15 -69 -71 0
-13 -4 -10 72 73 0
-13 -4 -10 72 -73 0
-13 -4 -10 -72 74 0
-13 -4 -10 -72 -74 0
16 8 9 75 76 0
16 8 9 75 -76 0
16 8 9 -75 77 0
16 8 9 -75 -77 0
5 15 14 78 79 0
5 15 14 78 -79 0
5 15 14 -78 80 0
5 15 14 -78 -80 0
-4 20 -19 81 82 0
-4 20 -19 81 -82 0
-4 20 -19 -81 83 0
-4 20 -19 -81 -83 0
17 16 1 84 85 0
17 16 1 84 -85 0
17 16 1 -84 86 0
17 16 1 -84 -86 0
10 6 19 87 88 0
10 6 19 87 -88 0
10 6 19 -87 89 0
10 6 19 -87 -89 0
-10 5 14 90 91 0
-10 5 14 90 -91 0
-10 5 14 -90 92 0
-10 5 14 -90 -92 0
-4 2 -17 93 94 0
-4 2 -17 93 -94 0
-4 2 -17 -93 95 0
-4 2 -17 -93 -95 0
-12 -14 -19 96 97 0
-12 -14 -19 96 -97 0
-12 -14 -19 -96 98 0
-12 -14 -19 -96 -98 0
8 -11 14 99 100 0
8 -11 14 99 -100 0
8 -11 14 -99 101 0
8 -11 14 -99 -101 0
-13 20 8 102 103 0
-13 20 8 102 -103 0
-13 20 8 -102 104 0
-13 20 8 -102 -104 0
-18 11 14 105 106 0
-18 11 14 105 -106 0
-18 11 14 -105 107 0
-18 11 14 -105 -107 0
-20 13 -4 108 109 0
-20 13 -4 108 -109 0
-20 13 -4 -108 110 0
-20 13 -4 -108 -110 0
-16 17 8 111 112 0
-16 17 8 111 -112 0
-16 17 8 -111 113 0
-16 17 8 -111 -113 0
13 16 7 114 115 0
13 16 7 114 -115 0
13 16 7 -114 116 0
13 16 7 -114 -116 0
17 3 16 117 118 0
17 3 16 117 -118 0
17 3 16 -117 119 0
17 3 16 -117 -119 0
-6 15 -18 120 121 0
-6 15 -18 120 -121 0
-6 15 -18 -120 122 0
-6 15 -18 -120 -122 0
17 -4 13 123 124 0
17 -4 13 123 -124 0
17 -4 13 -123 125 0
17 -4 13 -123 -125 0
17 5 -3 126 127 0
17 5 -3 126 -127 0
17 5 -3 -126 128 0
17 5 -3 -126 -128 0
20 19 1 129 130 0
20 19 1 129 -130 0
20 19 1 -129 131 0
20 19 1 -129 -131 0
20 4 5 132 133 0
20 4 5 132 -133 0
20 4 5 -132 134 0
20 4 5 -132 -134 0
13 2 6 135 136 0
13 2 6 135 -136 0
13 2 6 -135 137 0
13 2 6 -135 -137 0
-6 1 8 138 139 0
-6 1 8 138 -139 0
-6 1 8 -138 140 0
-6 1 8 -138 -140 0
7 19 -9 141 142 0
7 19 -9 141 -142 0
7 19 -9 -141 143 0
7 19 -9 -141 -143 0
4 3 -14 144 145 0
4 3 -14 144 -145 0
4 3 -14 -144 146 0
4 3 -14 -144 -146 0
-13 -6 19 147 148 0
-13 -6 19 147 -148 0
-13 -6 19 -147 149 0
-13 -6 19 -147 -149 0
-5 -6 -7 150 151 0
-5 -6 -7 150 -151 0
-5 -6 -7 -150 152 0
-5 -6 -7 -150 -152 0
15 -1 -12 153 154 0
15 -1 -12 153 -154 0
15 -1 -12 -153 155 0
15 -1 -12 -153 -155 0
-7 -6 -13 156 157 0
-7 -6 -13 156 -157 0
-7 -6 -13 -156 158 0
-7 -6 -13 -156 -158 0
12 18 -5 159 160 0
12 18 -5 159 -160 0
12 18 -5 -159 161 0
12 18 -5 -159 -161 0
-14 8 19 162 163 0
-14 8 19 162 -163 0
-14 8 19 -162 164 0
-14 8 19 -162 -164 0
16 7 11 165 166 0
16 7 11 165 -166 0
16 7 11 -165 167 0
16 7 11 -165 -167 0
1 3 14 168 169 0
1 3 14 168 -169 0
1 3 14 -168 170 0
1 3 14 -168 -170 0
10 7 -19 171 172 0
10 7 -19 171 -172 0
10 7 -19 -171 173 0
10 7 -19 -171 -173 0
17 -18 -12 174 175 0
17 -18 -12 174 -175 0
17 -18 -12 -174 176 0
17 -18 -12 -174 -176 0
-2 13 3 177 178 0
-2 13 3 177 -178 0
-2 13 3 -177 179 0
-2 13 3 -177 -179 0
-4 19 -10 180 181 0
-4 19 -10 180 -181 0
-4 19 -10 -180 182 0
-4 19 -10 -180 -182 0
15 5 -13 183 184 0
15 5 -13 183 -184 0
15 5 -13 -183 185 0
15 5 -13 -183 -185 0
-15 17 1 186 187 0
-15 17 1 186 -187 0
-15 17 1 -186 188 0
-15 17 1 -186 -188 0
-7 19 -18 189 190 0
-7 19 -18 189 -190 0
-7 19 -18 -189 191 0
-7 19 -18 -189 -191 0
-13 3 -9 192 193 0
-13 3 -9 192 -193 0
-13 3 -9 -192 194 0
-13 3 -9 -192 -194 0
18 -6 -10 195 196 0
18 -6 -10 195 -196 0
18 -6 -10 -195 197 0
18 -6 -10 -195 -197 0
18 13 10 198 199 0
18 13 10 198 -199 0
18 13 10 -198 200 0
18 13 10 -198 -200 0
15 3 4 201 202 0
15 3 4 201 -202 0
15 3 4 -201 203 0
15 3 4 -201 -203 0
-15 4 -2 204 205 0
-15 4 -2 204 -205 0
-15 4 -2 -204 206 0
-15 4 -2 -204 -206 0
6 -7 -1 207 208 0
6 -7 -1 207 -208 0
6 -7 -1 -207 209 0
6 -7 -1 -207 -209 0
-14 6 12 210 211 0
-14 6 12 210 -211 0
-14 6 12 -210 212 0
-14 6 12 -210 -212 0
18 -13 -5 213 214 0
18 -13 -5 213 -214 0
18 -13 -5 -213 215 0
18 -13 -5 -213 -215 0
5 1 7 216 217 0
5 1 7 216 -217 0
5 1 7 -216 218 0
5 1 7 -216 -218 0
-13 6 -14 219 220 0
-13 6 -14 219 -220 0
-13 6 -14 -219 221 0
-13 6 -14 -219 -221 0
-4 9 -19 222 223 0
-4 9 -19 222 -223 0
-4 9 -19 -222 224 0
-4 9 -19 -222 -224 0
-5 11 3 225 226 0
-5 11 3 225 -226 0
-5 11 3 -225 227 0
-5 11 3 -225 -227 0
1 7 -18 228 229 0
1 7 -18 228 -229 0
1 7 -18 -228 230 0
1 7 -18 -228 -230 0
4 14 -15 231 232 0
4 14 -15 231 -232 0
4 14 -15 -231 233 0
4 14 -15 -231 -233 0
11 -16 5 234 235 0
11 -16 5 234 -235 0
11 -16 5 -234 236 0
11 -16 5 -234 -236 0
2 16 -1 237 238 0
2 16 -1 237 -238 0
2 16 -1 -237 239 0
2 16 -1 -237 -239 0
11 12 20 240 241 0
11 12 20 240 -241 0
11 12 20 -240 242 0
11 12 20 -240 -242 0
-7 -8 -3 243 244 0
-7 -8 -3 243 -244 0
-7 -8 -3 -243 245 0
-7 -8 -3 -243 -245 0
15 -10 11 246 247 0
15 -10 11 246 -247 0
15 -10 11 -246 248 0
15 -10 11 -246 -248 0
-15 -7 14 249 250 0
-15 -7 14 249 -250 0
-15 -7 14 -249 251 0
-15 -7 14 -249 -251 0
-19 14 -18 252 253 0
-19 14 -18 252 -253 0
-19 14 -18 -252 254 0
-19 14 -18 -252 -254 0
-17 -11 10 255 256 0
-17 -11 10 255 -256 0
-17 -11 10 -255 257 0
-17 -11 10 -255 -257 0
1 -3 -18 258 259 0
1 -3 -18 258 -259 0
1 -3 -18 -258 260 0
1 -3 -18 -258 -260 0
-20 -8 -3 261 262 0
-20 -8 -3 261 -262 0
-20 -8 -3 -261 263 0
-20 -8 -3 -261 -263 0
-1 6 2 264 265 0
-1 6 2 264 -265 0
-1 6 2 -264 266 0
-1 6 2 -264 -266 0
-16 2 -15 267 268 0
-16 2 -15 267 -268 0
-16 2 -15 -267 269 0
-16 2 -15 -267 -269 0
11 -18 5 270 271 0
11 -18 5 270 -271 0
11 -18 5 -270 272 0
11 -18 5 -270 -272 0
11 -15 -4 273 274 0
11 -15 -4 273 -274 0
11 -15 -4 -273 275 0
11 -15 -4 -273 -275 0
1 17 -5 276 277 0
1 17 -5 276 -277 0
1 17 -5 -276 278 0
1 17 -5 -276 -278 0
-18 8 3 279 280 0
-18 8 3 279 -280 0
-18 8 3 -279 281 0
-18 8 3 -279 -281 0
-20 17 8 282 283 0
-20 17 8 282 -283 0
-20 17 8 -282 284 0
-20 17 8 -282 -284 0
-8 1 -6 285 286 0
-8 1 -6 285 -286 0
-8 1 -6 -285 287 0
-8 1 -6 -285 -287 0
-14 -12 -18 288 289 0
-14 -12 -18 288 -289 0
-14 -12 -18 -288 290 0
-14 -12 -18 -288 -290 0
-20 -8 3 291 292 0
-20 -8 3 291 -292 0
-20 -8 3 -291 293 0
-20 -8 3 -291 -293 0
294 295 297 301 309 0
294 295 297 301 -309 0
294 295 297 -301 310 0
294 295 297 -301 -310 0
294 295 -297 302 311 0
294 295 -297 302 -311 0
294 295 -297 -302 312 0
294 295 -297 -302 -312 0
294 -295 298 303 313 0
294 -295 298 303 -313 0
294 -295 298 -303 314 0
294 -295 298 -303 -314 0
294 -295 -298 304 315 0
294 -295 -298 304 -315 0
294 -295 -298 -304 316 0
294 -295 -298 -304 -316 0
-294 296 299 305 317 0
-294 296 299 305 -317 0
-294 296 299 -305 318 0
-294 296 299 -305 -318 0
-294 296 -299 306 319 0
-294 296 -299 306 -319 0
-294 296 -299 -306 320 0
-294 296 -299 -306 -320 0
-294 -296 300 307 321 0
-294 -296 300 307 -321 0
-294 -296 300 -307 322 0
-294 -296 300 -307 -322 0
-294 -296 -300 308 323 0
-294 -296 -300 308 -323 0
-294 -296 -300 -308 324 0
-294 -296 -300 -308 -324 0
325 326 328 332 340 0
325 326 328 332 -340 0
325 326 328 -332 341 0
325 326 328 -332 -341 0
325 326 -328 333 342 0
325 326 -328 333 -342 0
325 326 -328 -333 343 0
325 326 -328 -333 -343 0
325 -326 329 334 344 0
325 -326 329 334 -344 0
325 -326 329 -334 345 0
325 -326 329 -334 -345 0
325 -326 -329 335 346 0
325 -326 -329 335 -346 0
325 -326 -329 -335 347 0
325 -326 -329 -335 -347 0
-325 327 330 336 348 0
-325 327 330 336 -348 0
-325 327 330 -336 349 0
-325 327 330 -336 -349 0
-325 327 -330 337 350 0
-325 327 -330 337 -350 0
-325 327 -330 -337 351 0
-325 327 -330 -337 -351 0
-325 -327 331 338 352 0
-325 -327 331 338 -352 0
-325 -327 331 -338 353 0
-325 -327 331 -338 -353 0
-325 -327 -331 339 354 0
-325 -327 -331 339 -354 0
-325 -327 -331 -339 355 0
-325 -327 -331 -339 -355 0
356 357 359 363 371 0
356 357 359 363 -371 0
356 357 359 -363 372 0
356 357 359 -363 -372 0
356 357 -359 364 373 0
356 357 -359 364 -373 0
356 357 -359 -364 374 0
356 357 -359 -364 -374 0
356 -357 360 365 375 0
356 -357 360 365 -375 0
356 -357 360 -365 376 0
356 -357 360 -365 -376 0
356 -357 -360 366 377 0
356 -357 -360 366 -377 0
356 -357 -360 -366 378 0
356 -357 -360 -366 -378 0
-356 358 361 367 379 0
-356 358 361 367 -379 0
-356 358 361 -367 380 0
-356 358 361 -367 -380 0
-356 358 -361 368 381 0
-356 358 -361 368 -381 0
-356 358 -361 -368 382 0
-356 358 -361 -368 -382 0
-356 -358 362 369 383 0
-356 -358 362 369 -383 0
-356 -358 362 -369 384 0
-356 -358 362 -369 -384 0
-356 -358 -362 370 385 0
-356 -358 -362 370 -385 0
-356 -358 -362 -370 386 0
-356 -358 -362 -370 -386 0

